(set-logic HORN)


(declare-fun |h3| ( (_ BitVec 32) (_ BitVec 32) (_ BitVec 32) (_ BitVec 32) (_ BitVec 32) (_ BitVec 32) (_ BitVec 32) (_ BitVec 32) ) Bool)
(declare-fun |h23| ( (_ BitVec 32) (_ BitVec 32) (_ BitVec 32) (_ BitVec 32) (_ BitVec 32) (_ BitVec 32) (_ BitVec 32) (_ BitVec 32) ) Bool)
(declare-fun |h34| ( (_ BitVec 32) (_ BitVec 32) (_ BitVec 32) (_ BitVec 32) (_ BitVec 32) (_ BitVec 32) (_ BitVec 32) (_ BitVec 32) ) Bool)
(declare-fun |h25| ( (_ BitVec 32) (_ BitVec 32) (_ BitVec 32) (_ BitVec 32) (_ BitVec 32) (_ BitVec 32) (_ BitVec 32) (_ BitVec 32) ) Bool)
(declare-fun |h32| ( (_ BitVec 32) (_ BitVec 32) (_ BitVec 32) (_ BitVec 32) (_ BitVec 32) (_ BitVec 32) (_ BitVec 32) (_ BitVec 32) ) Bool)
(declare-fun |h18| ( (_ BitVec 32) (_ BitVec 32) (_ BitVec 32) (_ BitVec 32) (_ BitVec 32) (_ BitVec 32) (_ BitVec 32) (_ BitVec 32) ) Bool)
(declare-fun |h24| ( (_ BitVec 32) (_ BitVec 32) (_ BitVec 32) (_ BitVec 32) (_ BitVec 32) (_ BitVec 32) (_ BitVec 32) (_ BitVec 32) ) Bool)
(declare-fun |h36| ( (_ BitVec 32) (_ BitVec 32) (_ BitVec 32) (_ BitVec 32) (_ BitVec 32) (_ BitVec 32) (_ BitVec 32) (_ BitVec 32) ) Bool)
(declare-fun |h4| ( (_ BitVec 32) (_ BitVec 32) (_ BitVec 32) (_ BitVec 32) (_ BitVec 32) (_ BitVec 32) (_ BitVec 32) (_ BitVec 32) ) Bool)
(declare-fun |h7| ( (_ BitVec 32) (_ BitVec 32) (_ BitVec 32) (_ BitVec 32) (_ BitVec 32) (_ BitVec 32) (_ BitVec 32) (_ BitVec 32) ) Bool)
(declare-fun |h1| ( (_ BitVec 32) (_ BitVec 32) (_ BitVec 32) (_ BitVec 32) (_ BitVec 32) (_ BitVec 32) (_ BitVec 32) (_ BitVec 32) ) Bool)
(declare-fun |h8| ( (_ BitVec 32) (_ BitVec 32) (_ BitVec 32) (_ BitVec 32) (_ BitVec 32) (_ BitVec 32) (_ BitVec 32) (_ BitVec 32) ) Bool)
(declare-fun |h2| ( (_ BitVec 32) (_ BitVec 32) (_ BitVec 32) (_ BitVec 32) (_ BitVec 32) (_ BitVec 32) (_ BitVec 32) (_ BitVec 32) ) Bool)
(declare-fun |h9| ( (_ BitVec 32) (_ BitVec 32) (_ BitVec 32) (_ BitVec 32) (_ BitVec 32) (_ BitVec 32) (_ BitVec 32) (_ BitVec 32) ) Bool)
(declare-fun |h31| ( (_ BitVec 32) (_ BitVec 32) (_ BitVec 32) (_ BitVec 32) (_ BitVec 32) (_ BitVec 32) (_ BitVec 32) (_ BitVec 32) ) Bool)
(declare-fun |h29| ( (_ BitVec 32) (_ BitVec 32) (_ BitVec 32) (_ BitVec 32) (_ BitVec 32) (_ BitVec 32) (_ BitVec 32) (_ BitVec 32) ) Bool)
(declare-fun |h30| ( (_ BitVec 32) (_ BitVec 32) (_ BitVec 32) (_ BitVec 32) (_ BitVec 32) (_ BitVec 32) (_ BitVec 32) (_ BitVec 32) ) Bool)
(declare-fun |h14| ( (_ BitVec 32) (_ BitVec 32) (_ BitVec 32) (_ BitVec 32) (_ BitVec 32) (_ BitVec 32) (_ BitVec 32) (_ BitVec 32) ) Bool)
(declare-fun |h33| ( (_ BitVec 32) (_ BitVec 32) (_ BitVec 32) (_ BitVec 32) (_ BitVec 32) (_ BitVec 32) (_ BitVec 32) (_ BitVec 32) ) Bool)
(declare-fun |h16| ( (_ BitVec 32) (_ BitVec 32) (_ BitVec 32) (_ BitVec 32) (_ BitVec 32) (_ BitVec 32) (_ BitVec 32) (_ BitVec 32) ) Bool)
(declare-fun |h17| ( (_ BitVec 32) (_ BitVec 32) (_ BitVec 32) (_ BitVec 32) (_ BitVec 32) (_ BitVec 32) (_ BitVec 32) (_ BitVec 32) ) Bool)
(declare-fun |h27| ( (_ BitVec 32) (_ BitVec 32) (_ BitVec 32) (_ BitVec 32) (_ BitVec 32) (_ BitVec 32) (_ BitVec 32) (_ BitVec 32) ) Bool)
(declare-fun |h26| ( (_ BitVec 32) (_ BitVec 32) (_ BitVec 32) (_ BitVec 32) (_ BitVec 32) (_ BitVec 32) (_ BitVec 32) (_ BitVec 32) ) Bool)
(declare-fun |h35| ( (_ BitVec 32) (_ BitVec 32) (_ BitVec 32) (_ BitVec 32) (_ BitVec 32) (_ BitVec 32) (_ BitVec 32) (_ BitVec 32) ) Bool)
(declare-fun |h20| ( (_ BitVec 32) (_ BitVec 32) (_ BitVec 32) (_ BitVec 32) (_ BitVec 32) (_ BitVec 32) (_ BitVec 32) (_ BitVec 32) ) Bool)
(declare-fun |h15| ( (_ BitVec 32) (_ BitVec 32) (_ BitVec 32) (_ BitVec 32) (_ BitVec 32) (_ BitVec 32) (_ BitVec 32) (_ BitVec 32) ) Bool)
(declare-fun |h21| ( (_ BitVec 32) (_ BitVec 32) (_ BitVec 32) (_ BitVec 32) (_ BitVec 32) (_ BitVec 32) (_ BitVec 32) (_ BitVec 32) ) Bool)
(declare-fun |h6| ( (_ BitVec 32) (_ BitVec 32) (_ BitVec 32) (_ BitVec 32) (_ BitVec 32) (_ BitVec 32) (_ BitVec 32) (_ BitVec 32) ) Bool)
(declare-fun |h28| ( (_ BitVec 32) (_ BitVec 32) (_ BitVec 32) (_ BitVec 32) (_ BitVec 32) (_ BitVec 32) (_ BitVec 32) (_ BitVec 32) ) Bool)
(declare-fun |h22| ( (_ BitVec 32) (_ BitVec 32) (_ BitVec 32) (_ BitVec 32) (_ BitVec 32) (_ BitVec 32) (_ BitVec 32) (_ BitVec 32) ) Bool)
(declare-fun |h10| ( (_ BitVec 32) (_ BitVec 32) (_ BitVec 32) (_ BitVec 32) (_ BitVec 32) (_ BitVec 32) (_ BitVec 32) (_ BitVec 32) ) Bool)
(declare-fun |h19| ( (_ BitVec 32) (_ BitVec 32) (_ BitVec 32) (_ BitVec 32) (_ BitVec 32) (_ BitVec 32) (_ BitVec 32) (_ BitVec 32) ) Bool)
(declare-fun |h5| ( (_ BitVec 32) (_ BitVec 32) (_ BitVec 32) (_ BitVec 32) (_ BitVec 32) (_ BitVec 32) (_ BitVec 32) (_ BitVec 32) ) Bool)

(assert
  (forall ( (A (_ BitVec 32)) (B (_ BitVec 32)) (C (_ BitVec 32)) (D (_ BitVec 32)) (v_4 (_ BitVec 32)) (v_5 (_ BitVec 32)) (v_6 (_ BitVec 32)) (v_7 (_ BitVec 32)) ) 
    (=>
      (and
        (and true (= v_4 A) (= v_5 B) (= v_6 C) (= v_7 D))
      )
      (h1 A B C D v_4 v_5 v_6 v_7)
    )
  )
)
(assert
  (forall ( (A (_ BitVec 32)) (B (_ BitVec 32)) (C (_ BitVec 32)) (D (_ BitVec 32)) (E (_ BitVec 32)) (F (_ BitVec 32)) (G (_ BitVec 32)) (H (_ BitVec 32)) ) 
    (=>
      (and
        (h1 A B C D E F G H)
        true
      )
      (h2 A B C D E F G H)
    )
  )
)
(assert
  (forall ( (A (_ BitVec 32)) (B (_ BitVec 32)) (C (_ BitVec 32)) (D (_ BitVec 32)) (E (_ BitVec 32)) (F (_ BitVec 32)) (G (_ BitVec 32)) (H (_ BitVec 32)) ) 
    (=>
      (and
        (h2 A B C D E F G H)
        (bvsle #x00000001 H)
      )
      (h3 A B C D E F G H)
    )
  )
)
(assert
  (forall ( (A (_ BitVec 32)) (B (_ BitVec 32)) (C (_ BitVec 32)) (D (_ BitVec 32)) (E (_ BitVec 32)) (F (_ BitVec 32)) (G (_ BitVec 32)) (H (_ BitVec 32)) (I (_ BitVec 32)) ) 
    (=>
      (and
        (h3 A B C D E I G H)
        (= F #x00000001)
      )
      (h4 A B C D E F G H)
    )
  )
)
(assert
  (forall ( (A (_ BitVec 32)) (B (_ BitVec 32)) (C (_ BitVec 32)) (D (_ BitVec 32)) (E (_ BitVec 32)) (F (_ BitVec 32)) (G (_ BitVec 32)) (H (_ BitVec 32)) ) 
    (=>
      (and
        (h4 A B C D E F G H)
        true
      )
      (h5 A B C D E F G H)
    )
  )
)
(assert
  (forall ( (A (_ BitVec 32)) (B (_ BitVec 32)) (C (_ BitVec 32)) (D (_ BitVec 32)) (E (_ BitVec 32)) (F (_ BitVec 32)) (G (_ BitVec 32)) (H (_ BitVec 32)) ) 
    (=>
      (and
        (h5 A B C D E F G H)
        true
      )
      (h6 A B C D E F G H)
    )
  )
)
(assert
  (forall ( (A (_ BitVec 32)) (B (_ BitVec 32)) (C (_ BitVec 32)) (D (_ BitVec 32)) (E (_ BitVec 32)) (F (_ BitVec 32)) (G (_ BitVec 32)) (H (_ BitVec 32)) ) 
    (=>
      (and
        (h6 A B C D E F G H)
        true
      )
      (h7 A B C D E F G H)
    )
  )
)
(assert
  (forall ( (A (_ BitVec 32)) (B (_ BitVec 32)) (C (_ BitVec 32)) (D (_ BitVec 32)) (E (_ BitVec 32)) (F (_ BitVec 32)) (G (_ BitVec 32)) (H (_ BitVec 32)) ) 
    (=>
      (and
        (h36 A B C D E F G H)
        true
      )
      (h7 A B C D E F G H)
    )
  )
)
(assert
  (forall ( (A (_ BitVec 32)) (B (_ BitVec 32)) (C (_ BitVec 32)) (D (_ BitVec 32)) (E (_ BitVec 32)) (F (_ BitVec 32)) (G (_ BitVec 32)) (H (_ BitVec 32)) ) 
    (=>
      (and
        (h7 A B C D E F G H)
        true
      )
      (h8 A B C D E F G H)
    )
  )
)
(assert
  (forall ( (A (_ BitVec 32)) (B (_ BitVec 32)) (C (_ BitVec 32)) (D (_ BitVec 32)) (E (_ BitVec 32)) (F (_ BitVec 32)) (G (_ BitVec 32)) (H (_ BitVec 32)) ) 
    (=>
      (and
        (h8 A B C D E F G H)
        (bvsle (bvadd F (bvmul #xffffffff G)) #xffffffff)
      )
      (h9 A B C D E F G H)
    )
  )
)
(assert
  (forall ( (A (_ BitVec 32)) (B (_ BitVec 32)) (C (_ BitVec 32)) (D (_ BitVec 32)) (E (_ BitVec 32)) (F (_ BitVec 32)) (G (_ BitVec 32)) (H (_ BitVec 32)) (I (_ BitVec 32)) ) 
    (=>
      (and
        (h9 A B C D I F G H)
        (= H E)
      )
      (h10 A B C D E F G H)
    )
  )
)
(assert
  (forall ( (A (_ BitVec 32)) (B (_ BitVec 32)) (C (_ BitVec 32)) (D (_ BitVec 32)) (E (_ BitVec 32)) (F (_ BitVec 32)) (G (_ BitVec 32)) (H (_ BitVec 32)) ) 
    (=>
      (and
        (h10 A B C D E F G H)
        true
      )
      (h14 A B C D E F G H)
    )
  )
)
(assert
  (forall ( (A (_ BitVec 32)) (B (_ BitVec 32)) (C (_ BitVec 32)) (D (_ BitVec 32)) (E (_ BitVec 32)) (F (_ BitVec 32)) (G (_ BitVec 32)) (H (_ BitVec 32)) ) 
    (=>
      (and
        (h14 A B C D E F G H)
        true
      )
      (h15 A B C D E F G H)
    )
  )
)
(assert
  (forall ( (A (_ BitVec 32)) (B (_ BitVec 32)) (C (_ BitVec 32)) (D (_ BitVec 32)) (E (_ BitVec 32)) (F (_ BitVec 32)) (G (_ BitVec 32)) (H (_ BitVec 32)) ) 
    (=>
      (and
        (h15 A B C D E F G H)
        true
      )
      (h16 A B C D E F G H)
    )
  )
)
(assert
  (forall ( (A (_ BitVec 32)) (B (_ BitVec 32)) (C (_ BitVec 32)) (D (_ BitVec 32)) (E (_ BitVec 32)) (F (_ BitVec 32)) (G (_ BitVec 32)) (H (_ BitVec 32)) ) 
    (=>
      (and
        (h19 A B C D E F G H)
        true
      )
      (h16 A B C D E F G H)
    )
  )
)
(assert
  (forall ( (A (_ BitVec 32)) (B (_ BitVec 32)) (C (_ BitVec 32)) (D (_ BitVec 32)) (E (_ BitVec 32)) (F (_ BitVec 32)) (G (_ BitVec 32)) (H (_ BitVec 32)) ) 
    (=>
      (and
        (h16 A B C D E F G H)
        true
      )
      (h17 A B C D E F G H)
    )
  )
)
(assert
  (forall ( (A (_ BitVec 32)) (B (_ BitVec 32)) (C (_ BitVec 32)) (D (_ BitVec 32)) (E (_ BitVec 32)) (F (_ BitVec 32)) (G (_ BitVec 32)) (H (_ BitVec 32)) ) 
    (=>
      (and
        (h17 A B C D E F G H)
        (bvsle (bvadd E (bvmul #xffffffff G)) #xffffffff)
      )
      (h18 A B C D E F G H)
    )
  )
)
(assert
  (forall ( (A (_ BitVec 32)) (B (_ BitVec 32)) (C (_ BitVec 32)) (D (_ BitVec 32)) (E (_ BitVec 32)) (F (_ BitVec 32)) (G (_ BitVec 32)) (H (_ BitVec 32)) (I (_ BitVec 32)) ) 
    (=>
      (and
        (h18 A B C D I F G H)
        (= I (bvadd #xffffffff E))
      )
      (h19 A B C D E F G H)
    )
  )
)
(assert
  (forall ( (A (_ BitVec 32)) (B (_ BitVec 32)) (C (_ BitVec 32)) (D (_ BitVec 32)) (E (_ BitVec 32)) (F (_ BitVec 32)) (G (_ BitVec 32)) (H (_ BitVec 32)) ) 
    (=>
      (and
        (h17 A B C D E F G H)
        (bvsle #x00000000 (bvadd E (bvmul #xffffffff G)))
      )
      (h20 A B C D E F G H)
    )
  )
)
(assert
  (forall ( (A (_ BitVec 32)) (B (_ BitVec 32)) (C (_ BitVec 32)) (D (_ BitVec 32)) (E (_ BitVec 32)) (F (_ BitVec 32)) (G (_ BitVec 32)) (H (_ BitVec 32)) ) 
    (=>
      (and
        (h20 A B C D E F G H)
        true
      )
      (h21 A B C D E F G H)
    )
  )
)
(assert
  (forall ( (A (_ BitVec 32)) (B (_ BitVec 32)) (C (_ BitVec 32)) (D (_ BitVec 32)) (E (_ BitVec 32)) (F (_ BitVec 32)) (G (_ BitVec 32)) (H (_ BitVec 32)) ) 
    (=>
      (and
        (h21 A B C D E F G H)
        true
      )
      (h22 A B C D E F G H)
    )
  )
)
(assert
  (forall ( (A (_ BitVec 32)) (B (_ BitVec 32)) (C (_ BitVec 32)) (D (_ BitVec 32)) (E (_ BitVec 32)) (F (_ BitVec 32)) (G (_ BitVec 32)) (H (_ BitVec 32)) (I (_ BitVec 32)) ) 
    (=>
      (and
        (h22 A B C D I F G H)
        (= H E)
      )
      (h23 A B C D E F G H)
    )
  )
)
(assert
  (forall ( (A (_ BitVec 32)) (B (_ BitVec 32)) (C (_ BitVec 32)) (D (_ BitVec 32)) (E (_ BitVec 32)) (F (_ BitVec 32)) (G (_ BitVec 32)) (H (_ BitVec 32)) ) 
    (=>
      (and
        (h23 A B C D E F G H)
        true
      )
      (h24 A B C D E F G H)
    )
  )
)
(assert
  (forall ( (A (_ BitVec 32)) (B (_ BitVec 32)) (C (_ BitVec 32)) (D (_ BitVec 32)) (E (_ BitVec 32)) (F (_ BitVec 32)) (G (_ BitVec 32)) (H (_ BitVec 32)) ) 
    (=>
      (and
        (h24 A B C D E F G H)
        true
      )
      (h25 A B C D E F G H)
    )
  )
)
(assert
  (forall ( (A (_ BitVec 32)) (B (_ BitVec 32)) (C (_ BitVec 32)) (D (_ BitVec 32)) (E (_ BitVec 32)) (F (_ BitVec 32)) (G (_ BitVec 32)) (H (_ BitVec 32)) ) 
    (=>
      (and
        (h25 A B C D E F G H)
        true
      )
      (h26 A B C D E F G H)
    )
  )
)
(assert
  (forall ( (A (_ BitVec 32)) (B (_ BitVec 32)) (C (_ BitVec 32)) (D (_ BitVec 32)) (E (_ BitVec 32)) (F (_ BitVec 32)) (G (_ BitVec 32)) (H (_ BitVec 32)) ) 
    (=>
      (and
        (h35 A B C D E F G H)
        true
      )
      (h26 A B C D E F G H)
    )
  )
)
(assert
  (forall ( (A (_ BitVec 32)) (B (_ BitVec 32)) (C (_ BitVec 32)) (D (_ BitVec 32)) (E (_ BitVec 32)) (F (_ BitVec 32)) (G (_ BitVec 32)) (H (_ BitVec 32)) ) 
    (=>
      (and
        (h26 A B C D E F G H)
        true
      )
      (h27 A B C D E F G H)
    )
  )
)
(assert
  (forall ( (A (_ BitVec 32)) (B (_ BitVec 32)) (C (_ BitVec 32)) (D (_ BitVec 32)) (E (_ BitVec 32)) (F (_ BitVec 32)) (G (_ BitVec 32)) (H (_ BitVec 32)) ) 
    (=>
      (and
        (h27 A B C D E F G H)
        (bvsle (bvadd E (bvmul #xffffffff G)) #xffffffff)
      )
      (h28 A B C D E F G H)
    )
  )
)
(assert
  (forall ( (A (_ BitVec 32)) (B (_ BitVec 32)) (C (_ BitVec 32)) (D (_ BitVec 32)) (E (_ BitVec 32)) (F (_ BitVec 32)) (G (_ BitVec 32)) (H (_ BitVec 32)) ) 
    (=>
      (and
        (h28 A B C D E F G H)
        true
      )
      (h29 A B C D E F G H)
    )
  )
)
(assert
  (forall ( (A (_ BitVec 32)) (B (_ BitVec 32)) (C (_ BitVec 32)) (D (_ BitVec 32)) (E (_ BitVec 32)) (F (_ BitVec 32)) (G (_ BitVec 32)) (H (_ BitVec 32)) ) 
    (=>
      (and
        (h27 A B C D E F G H)
        (bvsle #x00000000 (bvadd E (bvmul #xffffffff G)))
      )
      (h30 A B C D E F G H)
    )
  )
)
(assert
  (forall ( (A (_ BitVec 32)) (B (_ BitVec 32)) (C (_ BitVec 32)) (D (_ BitVec 32)) (E (_ BitVec 32)) (F (_ BitVec 32)) (G (_ BitVec 32)) (H (_ BitVec 32)) ) 
    (=>
      (and
        (h30 A B C D E F G H)
        true
      )
      (h31 A B C D E F G H)
    )
  )
)
(assert
  (forall ( (A (_ BitVec 32)) (B (_ BitVec 32)) (C (_ BitVec 32)) (D (_ BitVec 32)) (E (_ BitVec 32)) (F (_ BitVec 32)) (G (_ BitVec 32)) (H (_ BitVec 32)) ) 
    (=>
      (and
        (h31 A B C D E F G H)
        true
      )
      (h32 A B C D E F G H)
    )
  )
)
(assert
  (forall ( (A (_ BitVec 32)) (B (_ BitVec 32)) (C (_ BitVec 32)) (D (_ BitVec 32)) (E (_ BitVec 32)) (F (_ BitVec 32)) (G (_ BitVec 32)) (H (_ BitVec 32)) ) 
    (=>
      (and
        (h29 A B C D E F G H)
        (bvsle E #x00000000)
      )
      (h33 A B C D E F G H)
    )
  )
)
(assert
  (forall ( (A (_ BitVec 32)) (B (_ BitVec 32)) (C (_ BitVec 32)) (D (_ BitVec 32)) (E (_ BitVec 32)) (F (_ BitVec 32)) (G (_ BitVec 32)) (H (_ BitVec 32)) ) 
    (=>
      (and
        (h29 A B C D E F G H)
        (bvsle #x00000001 E)
      )
      (h34 A B C D E F G H)
    )
  )
)
(assert
  (forall ( (A (_ BitVec 32)) (B (_ BitVec 32)) (C (_ BitVec 32)) (D (_ BitVec 32)) (E (_ BitVec 32)) (F (_ BitVec 32)) (G (_ BitVec 32)) (H (_ BitVec 32)) (I (_ BitVec 32)) ) 
    (=>
      (and
        (h34 A B C D I F G H)
        (= I (bvadd #xffffffff E))
      )
      (h35 A B C D E F G H)
    )
  )
)
(assert
  (forall ( (A (_ BitVec 32)) (B (_ BitVec 32)) (C (_ BitVec 32)) (D (_ BitVec 32)) (E (_ BitVec 32)) (F (_ BitVec 32)) (G (_ BitVec 32)) (H (_ BitVec 32)) (I (_ BitVec 32)) ) 
    (=>
      (and
        (h32 A B C D E I G H)
        (= I (bvadd #xffffffff F))
      )
      (h36 A B C D E F G H)
    )
  )
)
(assert
  (forall ( (A (_ BitVec 32)) (B (_ BitVec 32)) (C (_ BitVec 32)) (D (_ BitVec 32)) (E (_ BitVec 32)) (F (_ BitVec 32)) (G (_ BitVec 32)) (H (_ BitVec 32)) ) 
    (=>
      (and
        (h33 A B C D E F G H)
        true
      )
      false
    )
  )
)

(check-sat)
(exit)
